language ESSENCE' 1.0
$ minion Nodes: 1
$ minion TotalTime: 0.00059
$ Savile Row TotalTime: 0.198
letting y_tuple1 be 1
letting y_tuple2_tuple1 be 2
letting y_tuple2_tuple2_tuple1 be 3
letting y_tuple2_tuple2_tuple2 be 4
